nK = 1614;
nT = 6;
nI = 14;
L = 35;
TT = 334;
np = 1;
nc = 3;
b = [61, 64, 37, 38, 32, 60, 29, 27, 23, 21, 58, 52, 52, 22];
d = [132, 102, 120, 78, 112, 99, 116, 79, 89, 67, 98, 78, 143, 128];
m = [2.4, 1.4, 2.5, 1.3, 2.3, 1.9, 1.1, 2.2, 2.4, 1.6, 1.5, 1, 2.4, 1.1];
pt = [0.2, 0.32, 0.27, 0.35, 0.25, 0.28];
st = [11.2, 16, 13.77, 16.1, 12.75, 14];
arc = {<1, 0, 1, 1, 0, 0, 0, [1, 1, 1, 1, 1, 1]>, <2, 1, 2, 1, 0, 0, 0, [1, 1, 1, 1, 1, 1]>, <3, 2, 3, 1, 0, 0, 0, [1, 1, 1, 1, 1, 1]>, <4, 3, 4, 1, 0, 0, 0, [1, 1, 1, 1, 1, 1]>, <5, 4, 5, 1, 0, 0, 0, [1, 1, 1, 1, 1, 1]>, <6, 5, 6, 1, 0, 0, 0, [1, 1, 1, 1, 1, 1]>, <7, 6, 7, 1, 0, 0, 0, [1, 1, 1, 1, 1, 1]>, <8, 7, 8, 1, 0, 0, 0, [1, 1, 1, 1, 1, 1]>, <9, 8, 9, 1, 0, 0, 0, [1, 1, 1, 1, 1, 1]>, <10, 9, 10, 1, 0, 0, 0, [1, 1, 1, 1, 1, 1]>, <11, 10, 11, 1, 0, 0, 0, [1, 1, 1, 1, 1, 1]>, <12, 11, 12, 1, 0, 0, 0, [1, 1, 1, 1, 1, 1]>, <13, 12, 13, 1, 0, 0, 0, [1, 1, 1, 1, 1, 1]>, <14, 13, 14, 1, 0, 0, 0, [1, 1, 1, 1, 1, 1]>, <15, 14, 15, 1, 0, 0, 0, [1, 1, 1, 1, 1, 1]>, <16, 15, 16, 1, 0, 0, 0, [1, 1, 1, 1, 1, 1]>, <17, 16, 17, 1, 0, 0, 0, [1, 1, 1, 1, 1, 1]>, <18, 17, 18, 1, 0, 0, 0, [1, 1, 1, 1, 1, 1]>, <19, 18, 19, 1, 0, 0, 0, [1, 1, 1, 1, 1, 1]>, <20, 19, 20, 1, 0, 0, 0, [1, 1, 1, 1, 1, 1]>, <21, 20, 21, 1, 0, 0, 0, [1, 1, 1, 1, 1, 1]>, <22, 21, 22, 1, 0, 0, 0, [1, 1, 1, 1, 1, 1]>, <23, 22, 23, 1, 0, 0, 0, [1, 1, 1, 1, 1, 1]>, <24, 23, 24, 1, 0, 0, 0, [1, 1, 1, 1, 1, 1]>, <25, 24, 25, 1, 0, 0, 0, [1, 1, 1, 1, 1, 1]>, <26, 25, 26, 1, 0, 0, 0, [1, 1, 1, 1, 1, 1]>, <27, 26, 27, 1, 0, 0, 0, [1, 1, 1, 1, 1, 1]>, <28, 27, 28, 1, 0, 0, 0, [1, 1, 1, 1, 1, 1]>, <29, 28, 29, 1, 0, 0, 0, [1, 1, 1, 1, 1, 1]>, <30, 29, 30, 1, 0, 0, 0, [1, 1, 1, 1, 1, 1]>, <31, 30, 31, 1, 0, 0, 0, [1, 1, 1, 1, 1, 1]>, <32, 31, 32, 1, 0, 0, 0, [1, 1, 1, 1, 1, 1]>, <33, 32, 33, 1, 0, 0, 0, [1, 1, 1, 1, 1, 1]>, <34, 33, 34, 1, 0, 0, 0, [1, 1, 1, 1, 1, 1]>, <35, 34, 35, 1, 0, 0, 0, [1, 1, 1, 1, 1, 1]>, <36, 0, 17, 17, 1, 0, 0, [0, 1, 1, 0, 0, 0]>, <37, 1, 18, 17, 1, 0, 0, [0, 1, 1, 0, 0, 0]>, <38, 2, 19, 17, 1, 0, 0, [0, 1, 1, 0, 0, 0]>, <39, 3, 20, 17, 1, 0, 0, [0, 1, 1, 0, 0, 0]>, <40, 4, 21, 17, 1, 0, 0, [0, 1, 1, 0, 0, 0]>, <41, 5, 22, 17, 1, 0, 0, [0, 1, 1, 0, 0, 0]>, <42, 6, 23, 17, 1, 0, 0, [0, 1, 1, 0, 0, 0]>, <43, 9, 26, 17, 1, 0, 0, [0, 1, 1, 0, 0, 0]>, <44, 10, 27, 17, 1, 0, 0, [0, 1, 1, 0, 0, 0]>, <45, 11, 28, 17, 1, 0, 0, [0, 1, 1, 0, 0, 0]>, <46, 12, 29, 17, 1, 0, 0, [0, 1, 1, 0, 0, 0]>, <47, 13, 30, 17, 1, 0, 0, [0, 1, 1, 0, 0, 0]>, <48, 14, 31, 17, 1, 0, 0, [0, 1, 1, 0, 0, 0]>, <49, 15, 32, 17, 1, 0, 0, [0, 1, 1, 0, 0, 0]>, <50, 16, 33, 17, 1, 0, 0, [0, 1, 1, 0, 0, 0]>, <51, 17, 34, 17, 1, 0, 0, [0, 1, 1, 0, 0, 0]>, <52, 18, 35, 17, 1, 0, 0, [0, 1, 1, 0, 0, 0]>, <53, 3, 17, 14, 2, 1, 0, [1, 0, 0, 0, 0, 1]>, <54, 4, 18, 14, 2, 1, 0, [1, 0, 0, 0, 0, 1]>, <55, 5, 19, 14, 2, 1, 0, [1, 0, 0, 0, 0, 1]>, <56, 6, 20, 14, 2, 1, 0, [1, 0, 0, 0, 0, 1]>, <57, 12, 26, 14, 2, 1, 0, [1, 0, 0, 0, 0, 1]>, <58, 13, 27, 14, 2, 1, 0, [1, 0, 0, 0, 0, 1]>, <59, 14, 28, 14, 2, 1, 0, [1, 0, 0, 0, 0, 1]>, <60, 15, 29, 14, 2, 1, 0, [1, 0, 0, 0, 0, 1]>, <61, 17, 31, 14, 2, 1, 0, [1, 0, 0, 0, 0, 1]>, <62, 18, 32, 14, 2, 1, 0, [1, 0, 0, 0, 0, 1]>, <63, 19, 33, 14, 2, 1, 0, [1, 0, 0, 0, 0, 1]>, <64, 20, 34, 14, 2, 1, 0, [1, 0, 0, 0, 0, 1]>, <65, 21, 35, 14, 2, 1, 0, [1, 0, 0, 0, 0, 1]>, <66, 1, 17, 16, 3, 1, 0, [1, 0, 0, 0, 0, 1]>, <67, 2, 18, 16, 3, 1, 0, [1, 0, 0, 0, 0, 1]>, <68, 3, 19, 16, 3, 1, 0, [1, 0, 0, 0, 0, 1]>, <69, 4, 20, 16, 3, 1, 0, [1, 0, 0, 0, 0, 1]>, <70, 5, 21, 16, 3, 1, 0, [1, 0, 0, 0, 0, 1]>, <71, 6, 22, 16, 3, 1, 0, [1, 0, 0, 0, 0, 1]>, <72, 10, 26, 16, 3, 1, 0, [1, 0, 0, 0, 0, 1]>, <73, 11, 27, 16, 3, 1, 0, [1, 0, 0, 0, 0, 1]>, <74, 12, 28, 16, 3, 1, 0, [1, 0, 0, 0, 0, 1]>, <75, 13, 29, 16, 3, 1, 0, [1, 0, 0, 0, 0, 1]>, <76, 14, 30, 16, 3, 1, 0, [1, 0, 0, 0, 0, 1]>, <77, 15, 31, 16, 3, 1, 0, [1, 0, 0, 0, 0, 1]>, <78, 16, 32, 16, 3, 1, 0, [1, 0, 0, 0, 0, 1]>, <79, 17, 33, 16, 3, 1, 0, [1, 0, 0, 0, 0, 1]>, <80, 18, 34, 16, 3, 1, 0, [1, 0, 0, 0, 0, 1]>, <81, 19, 35, 16, 3, 1, 0, [1, 0, 0, 0, 0, 1]>, <82, 3, 17, 14, 4, 1, 0, [1, 0, 0, 0, 0, 1]>, <83, 4, 18, 14, 4, 1, 0, [1, 0, 0, 0, 0, 1]>, <84, 5, 19, 14, 4, 1, 0, [1, 0, 0, 0, 0, 1]>, <85, 6, 20, 14, 4, 1, 0, [1, 0, 0, 0, 0, 1]>, <86, 12, 26, 14, 4, 1, 0, [1, 0, 0, 0, 0, 1]>, <87, 13, 27, 14, 4, 1, 0, [1, 0, 0, 0, 0, 1]>, <88, 14, 28, 14, 4, 1, 0, [1, 0, 0, 0, 0, 1]>, <89, 15, 29, 14, 4, 1, 0, [1, 0, 0, 0, 0, 1]>, <90, 17, 31, 14, 4, 1, 0, [1, 0, 0, 0, 0, 1]>, <91, 18, 32, 14, 4, 1, 0, [1, 0, 0, 0, 0, 1]>, <92, 19, 33, 14, 4, 1, 0, [1, 0, 0, 0, 0, 1]>, <93, 20, 34, 14, 4, 1, 0, [1, 0, 0, 0, 0, 1]>, <94, 21, 35, 14, 4, 1, 0, [1, 0, 0, 0, 0, 1]>, <95, 1, 17, 16, 5, 0, 0, [1, 0, 0, 0, 0, 1]>, <96, 2, 18, 16, 5, 0, 0, [1, 0, 0, 0, 0, 1]>, <97, 3, 19, 16, 5, 0, 0, [1, 0, 0, 0, 0, 1]>, <98, 4, 20, 16, 5, 0, 0, [1, 0, 0, 0, 0, 1]>, <99, 5, 21, 16, 5, 0, 0, [1, 0, 0, 0, 0, 1]>, <100, 6, 22, 16, 5, 0, 0, [1, 0, 0, 0, 0, 1]>, <101, 10, 26, 16, 5, 0, 0, [1, 0, 0, 0, 0, 1]>, <102, 11, 27, 16, 5, 0, 0, [1, 0, 0, 0, 0, 1]>, <103, 12, 28, 16, 5, 0, 0, [1, 0, 0, 0, 0, 1]>, <104, 13, 29, 16, 5, 0, 0, [1, 0, 0, 0, 0, 1]>, <105, 14, 30, 16, 5, 0, 0, [1, 0, 0, 0, 0, 1]>, <106, 15, 31, 16, 5, 0, 0, [1, 0, 0, 0, 0, 1]>, <107, 16, 32, 16, 5, 0, 0, [1, 0, 0, 0, 0, 1]>, <108, 17, 33, 16, 5, 0, 0, [1, 0, 0, 0, 0, 1]>, <109, 18, 34, 16, 5, 0, 0, [1, 0, 0, 0, 0, 1]>, <110, 19, 35, 16, 5, 0, 0, [1, 0, 0, 0, 0, 1]>, <111, 4, 17, 13, 6, 0, 0, [1, 1, 0, 0, 0, 0]>, <112, 5, 18, 13, 6, 0, 0, [1, 1, 0, 0, 0, 0]>, <113, 6, 19, 13, 6, 0, 0, [1, 1, 0, 0, 0, 0]>, <114, 13, 26, 13, 6, 0, 0, [1, 1, 0, 0, 0, 0]>, <115, 14, 27, 13, 6, 0, 0, [1, 1, 0, 0, 0, 0]>, <116, 15, 28, 13, 6, 0, 0, [1, 1, 0, 0, 0, 0]>, <117, 18, 31, 13, 6, 0, 0, [1, 1, 0, 0, 0, 0]>, <118, 19, 32, 13, 6, 0, 0, [1, 1, 0, 0, 0, 0]>, <119, 20, 33, 13, 6, 0, 0, [1, 1, 0, 0, 0, 0]>, <120, 21, 34, 13, 6, 0, 0, [1, 1, 0, 0, 0, 0]>, <121, 22, 35, 13, 6, 0, 0, [1, 1, 0, 0, 0, 0]>, <122, 0, 18, 18, 7, 0, 1, [1, 1, 0, 0, 0, 0]>, <123, 1, 19, 18, 7, 0, 1, [1, 1, 0, 0, 0, 0]>, <124, 2, 20, 18, 7, 0, 1, [1, 1, 0, 0, 0, 0]>, <125, 3, 21, 18, 7, 0, 1, [1, 1, 0, 0, 0, 0]>, <126, 4, 22, 18, 7, 0, 1, [1, 1, 0, 0, 0, 0]>, <127, 5, 23, 18, 7, 0, 1, [1, 1, 0, 0, 0, 0]>, <128, 6, 24, 18, 7, 0, 1, [1, 1, 0, 0, 0, 0]>, <129, 8, 26, 18, 7, 0, 1, [1, 1, 0, 0, 0, 0]>, <130, 9, 27, 18, 7, 0, 1, [1, 1, 0, 0, 0, 0]>, <131, 10, 28, 18, 7, 0, 1, [1, 1, 0, 0, 0, 0]>, <132, 11, 29, 18, 7, 0, 1, [1, 1, 0, 0, 0, 0]>, <133, 12, 30, 18, 7, 0, 1, [1, 1, 0, 0, 0, 0]>, <134, 13, 31, 18, 7, 0, 1, [1, 1, 0, 0, 0, 0]>, <135, 14, 32, 18, 7, 0, 1, [1, 1, 0, 0, 0, 0]>, <136, 15, 33, 18, 7, 0, 1, [1, 1, 0, 0, 0, 0]>, <137, 16, 34, 18, 7, 0, 1, [1, 1, 0, 0, 0, 0]>, <138, 17, 35, 18, 7, 0, 1, [1, 1, 0, 0, 0, 0]>, <139, 0, 17, 17, 8, 1, 0, [0, 0, 0, 0, 1, 1]>, <140, 1, 18, 17, 8, 1, 0, [0, 0, 0, 0, 1, 1]>, <141, 2, 19, 17, 8, 1, 0, [0, 0, 0, 0, 1, 1]>, <142, 3, 20, 17, 8, 1, 0, [0, 0, 0, 0, 1, 1]>, <143, 4, 21, 17, 8, 1, 0, [0, 0, 0, 0, 1, 1]>, <144, 5, 22, 17, 8, 1, 0, [0, 0, 0, 0, 1, 1]>, <145, 6, 23, 17, 8, 1, 0, [0, 0, 0, 0, 1, 1]>, <146, 9, 26, 17, 8, 1, 0, [0, 0, 0, 0, 1, 1]>, <147, 10, 27, 17, 8, 1, 0, [0, 0, 0, 0, 1, 1]>, <148, 11, 28, 17, 8, 1, 0, [0, 0, 0, 0, 1, 1]>, <149, 12, 29, 17, 8, 1, 0, [0, 0, 0, 0, 1, 1]>, <150, 13, 30, 17, 8, 1, 0, [0, 0, 0, 0, 1, 1]>, <151, 14, 31, 17, 8, 1, 0, [0, 0, 0, 0, 1, 1]>, <152, 15, 32, 17, 8, 1, 0, [0, 0, 0, 0, 1, 1]>, <153, 16, 33, 17, 8, 1, 0, [0, 0, 0, 0, 1, 1]>, <154, 17, 34, 17, 8, 1, 0, [0, 0, 0, 0, 1, 1]>, <155, 18, 35, 17, 8, 1, 0, [0, 0, 0, 0, 1, 1]>, <156, 4, 17, 13, 9, 0, 0, [1, 1, 0, 0, 0, 0]>, <157, 5, 18, 13, 9, 0, 0, [1, 1, 0, 0, 0, 0]>, <158, 6, 19, 13, 9, 0, 0, [1, 1, 0, 0, 0, 0]>, <159, 13, 26, 13, 9, 0, 0, [1, 1, 0, 0, 0, 0]>, <160, 14, 27, 13, 9, 0, 0, [1, 1, 0, 0, 0, 0]>, <161, 15, 28, 13, 9, 0, 0, [1, 1, 0, 0, 0, 0]>, <162, 18, 31, 13, 9, 0, 0, [1, 1, 0, 0, 0, 0]>, <163, 19, 32, 13, 9, 0, 0, [1, 1, 0, 0, 0, 0]>, <164, 20, 33, 13, 9, 0, 0, [1, 1, 0, 0, 0, 0]>, <165, 21, 34, 13, 9, 0, 0, [1, 1, 0, 0, 0, 0]>, <166, 22, 35, 13, 9, 0, 0, [1, 1, 0, 0, 0, 0]>, <167, 0, 17, 17, 10, 0, 0, [1, 0, 0, 0, 0, 1]>, <168, 1, 18, 17, 10, 0, 0, [1, 0, 0, 0, 0, 1]>, <169, 2, 19, 17, 10, 0, 0, [1, 0, 0, 0, 0, 1]>, <170, 3, 20, 17, 10, 0, 0, [1, 0, 0, 0, 0, 1]>, <171, 4, 21, 17, 10, 0, 0, [1, 0, 0, 0, 0, 1]>, <172, 5, 22, 17, 10, 0, 0, [1, 0, 0, 0, 0, 1]>, <173, 6, 23, 17, 10, 0, 0, [1, 0, 0, 0, 0, 1]>, <174, 9, 26, 17, 10, 0, 0, [1, 0, 0, 0, 0, 1]>, <175, 10, 27, 17, 10, 0, 0, [1, 0, 0, 0, 0, 1]>, <176, 11, 28, 17, 10, 0, 0, [1, 0, 0, 0, 0, 1]>, <177, 12, 29, 17, 10, 0, 0, [1, 0, 0, 0, 0, 1]>, <178, 13, 30, 17, 10, 0, 0, [1, 0, 0, 0, 0, 1]>, <179, 14, 31, 17, 10, 0, 0, [1, 0, 0, 0, 0, 1]>, <180, 15, 32, 17, 10, 0, 0, [1, 0, 0, 0, 0, 1]>, <181, 16, 33, 17, 10, 0, 0, [1, 0, 0, 0, 0, 1]>, <182, 17, 34, 17, 10, 0, 0, [1, 0, 0, 0, 0, 1]>, <183, 18, 35, 17, 10, 0, 0, [1, 0, 0, 0, 0, 1]>, <184, 2, 17, 15, 11, 1, 0, [1, 1, 0, 0, 0, 0]>, <185, 3, 18, 15, 11, 1, 0, [1, 1, 0, 0, 0, 0]>, <186, 4, 19, 15, 11, 1, 0, [1, 1, 0, 0, 0, 0]>, <187, 5, 20, 15, 11, 1, 0, [1, 1, 0, 0, 0, 0]>, <188, 6, 21, 15, 11, 1, 0, [1, 1, 0, 0, 0, 0]>, <189, 11, 26, 15, 11, 1, 0, [1, 1, 0, 0, 0, 0]>, <190, 12, 27, 15, 11, 1, 0, [1, 1, 0, 0, 0, 0]>, <191, 13, 28, 15, 11, 1, 0, [1, 1, 0, 0, 0, 0]>, <192, 14, 29, 15, 11, 1, 0, [1, 1, 0, 0, 0, 0]>, <193, 15, 30, 15, 11, 1, 0, [1, 1, 0, 0, 0, 0]>, <194, 16, 31, 15, 11, 1, 0, [1, 1, 0, 0, 0, 0]>, <195, 17, 32, 15, 11, 1, 0, [1, 1, 0, 0, 0, 0]>, <196, 18, 33, 15, 11, 1, 0, [1, 1, 0, 0, 0, 0]>, <197, 19, 34, 15, 11, 1, 0, [1, 1, 0, 0, 0, 0]>, <198, 20, 35, 15, 11, 1, 0, [1, 1, 0, 0, 0, 0]>, <199, 2, 17, 15, 12, 0, 0, [0, 0, 0, 1, 1, 0]>, <200, 3, 18, 15, 12, 0, 0, [0, 0, 0, 1, 1, 0]>, <201, 4, 19, 15, 12, 0, 0, [0, 0, 0, 1, 1, 0]>, <202, 5, 20, 15, 12, 0, 0, [0, 0, 0, 1, 1, 0]>, <203, 6, 21, 15, 12, 0, 0, [0, 0, 0, 1, 1, 0]>, <204, 11, 26, 15, 12, 0, 0, [0, 0, 0, 1, 1, 0]>, <205, 12, 27, 15, 12, 0, 0, [0, 0, 0, 1, 1, 0]>, <206, 13, 28, 15, 12, 0, 0, [0, 0, 0, 1, 1, 0]>, <207, 14, 29, 15, 12, 0, 0, [0, 0, 0, 1, 1, 0]>, <208, 15, 30, 15, 12, 0, 0, [0, 0, 0, 1, 1, 0]>, <209, 16, 31, 15, 12, 0, 0, [0, 0, 0, 1, 1, 0]>, <210, 17, 32, 15, 12, 0, 0, [0, 0, 0, 1, 1, 0]>, <211, 18, 33, 15, 12, 0, 0, [0, 0, 0, 1, 1, 0]>, <212, 19, 34, 15, 12, 0, 0, [0, 0, 0, 1, 1, 0]>, <213, 20, 35, 15, 12, 0, 0, [0, 0, 0, 1, 1, 0]>, <214, 0, 17, 17, 13, 0, 0, [0, 0, 0, 0, 1, 1]>, <215, 1, 18, 17, 13, 0, 0, [0, 0, 0, 0, 1, 1]>, <216, 2, 19, 17, 13, 0, 0, [0, 0, 0, 0, 1, 1]>, <217, 3, 20, 17, 13, 0, 0, [0, 0, 0, 0, 1, 1]>, <218, 4, 21, 17, 13, 0, 0, [0, 0, 0, 0, 1, 1]>, <219, 5, 22, 17, 13, 0, 0, [0, 0, 0, 0, 1, 1]>, <220, 6, 23, 17, 13, 0, 0, [0, 0, 0, 0, 1, 1]>, <221, 9, 26, 17, 13, 0, 0, [0, 0, 0, 0, 1, 1]>, <222, 10, 27, 17, 13, 0, 0, [0, 0, 0, 0, 1, 1]>, <223, 11, 28, 17, 13, 0, 0, [0, 0, 0, 0, 1, 1]>, <224, 12, 29, 17, 13, 0, 0, [0, 0, 0, 0, 1, 1]>, <225, 13, 30, 17, 13, 0, 0, [0, 0, 0, 0, 1, 1]>, <226, 14, 31, 17, 13, 0, 0, [0, 0, 0, 0, 1, 1]>, <227, 15, 32, 17, 13, 0, 0, [0, 0, 0, 0, 1, 1]>, <228, 16, 33, 17, 13, 0, 0, [0, 0, 0, 0, 1, 1]>, <229, 17, 34, 17, 13, 0, 0, [0, 0, 0, 0, 1, 1]>, <230, 18, 35, 17, 13, 0, 0, [0, 0, 0, 0, 1, 1]>, <231, 3, 17, 14, 14, 0, 0, [1, 0, 0, 0, 0, 1]>, <232, 4, 18, 14, 14, 0, 0, [1, 0, 0, 0, 0, 1]>, <233, 5, 19, 14, 14, 0, 0, [1, 0, 0, 0, 0, 1]>, <234, 6, 20, 14, 14, 0, 0, [1, 0, 0, 0, 0, 1]>, <235, 12, 26, 14, 14, 0, 0, [1, 0, 0, 0, 0, 1]>, <236, 13, 27, 14, 14, 0, 0, [1, 0, 0, 0, 0, 1]>, <237, 14, 28, 14, 14, 0, 0, [1, 0, 0, 0, 0, 1]>, <238, 15, 29, 14, 14, 0, 0, [1, 0, 0, 0, 0, 1]>, <239, 17, 31, 14, 14, 0, 0, [1, 0, 0, 0, 0, 1]>, <240, 18, 32, 14, 14, 0, 0, [1, 0, 0, 0, 0, 1]>, <241, 19, 33, 14, 14, 0, 0, [1, 0, 0, 0, 0, 1]>, <242, 20, 34, 14, 14, 0, 0, [1, 0, 0, 0, 0, 1]>, <243, 21, 35, 14, 14, 0, 0, [1, 0, 0, 0, 0, 1]>};
